; benchmark generated from python API
(set-info :status unknown)
(declare-datatypes ((RealState 0)) (((RMk1 (rval1 Real)) (RMk2 (rval2 Real)))))
 (assert
 (forall ((|v11:0| Real) )(forall ((|v10:1| Real) )(forall ((|v9:2| Real) )(forall ((|v8:3| Real) )(exists ((|v7:4_st| RealState) (val!4244 Real) )(exists ((|v6:5_st| RealState) (val!4245 Real) )(exists ((|v5:6_st| RealState) (val!4246 Real) )(exists ((|v4:7_st| RealState) (val!4247 Real) )(forall ((|v3:8| Real) )(forall ((|v2:9| Real) )(forall ((|v1:10| Real) )(forall ((|v0:11| Real) )(let ((?x2544 (* 5.0 |v0:11|)))
 (let ((?x2540 (+ (+ (+ (* 14.0 |v8:3|) (* (- 4.0) (rval2 |v6:5_st|))) (* 6.0 |v2:9|)) ?x2544)))
 (let ((?x2593 (+ (+ (+ |v1:10| (* 10.0 |v3:8|)) (* (- 9.0) (rval2 |v5:6_st|))) (* (- 18.0) (rval2 |v5:6_st|)))))
 (let ((?x1581 (- 17.0)))
 (let ((?x934 (rval2 |v6:5_st|)))
 (let ((?x2389 (* 18.0 ?x934)))
 (let ((?x1715 (+ (+ (+ (* 10.0 |v8:3|) (* 2.0 |v3:8|)) (* (- 1.0) |v0:11|)) ?x2389)))
 (let ((?x734 (- 20.0)))
 (let ((?x54 (* 6.0 |v10:1|)))
 (let (($x2424 (<= (+ (+ (+ (* 10.0 ?x934) (* 2.0 |v8:3|)) (* 10.0 |v2:9|)) ?x54) ?x734)))
 (let ((?x1513 (- 14.0)))
 (let ((?x2228 (+ (+ (* (- 18.0) |v10:1|) (* (- 16.0) (rval2 |v5:6_st|))) (* (- 1.0) ?x934))))
 (let (($x1695 (and (and (<= (+ ?x2228 (* 20.0 |v11:0|)) ?x1513) (and $x2424 (<= ?x1715 ?x1581))) (<= ?x2593 14.0))))
 (let ((?x760 (rval2 |v7:4_st|)))
 (let ((?x991 (- 9.0)))
 (let ((?x2202 (* ?x991 ?x760)))
 (let (($x3068 (<= (+ (+ (+ (* (- 18.0) |v9:2|) ?x2202) ?x2202) (* (- 19.0) ?x760)) 9.0)))
 (let ((?x2655 (- 6.0)))
 (let ((?x468 (rval2 |v4:7_st|)))
 (let ((?x104 (* 7.0 ?x468)))
 (let ((?x1929 (+ (+ (+ (* 4.0 (rval2 |v5:6_st|)) (* (- 3.0) |v8:3|)) (* ?x1581 ?x760)) ?x104)))
 (let ((?x37 (+ (+ (+ (* 14.0 |v0:11|) (* ?x991 ?x934)) (* 5.0 |v10:1|)) (* (- 15.0) ?x934))))
 (let ((?x2329 (- 12.0)))
 (let ((?x897 (* 10.0 |v2:9|)))
 (let (($x204 (<= (+ (+ (+ (* 2.0 |v11:0|) (* ?x991 |v2:9|)) (* (- 2.0) ?x760)) ?x897) ?x2329)))
 (let ((?x1016 (+ (+ (+ (* 17.0 |v10:1|) (* ?x1581 ?x934)) (* (- 3.0) |v8:3|)) (* (- 1.0) (rval2 |v5:6_st|)))))
 (let ((?x2414 (* 3.0 |v1:10|)))
 (let ((?x711 (+ (+ (* (- 4.0) ?x468) (* (- 7.0) |v1:10|)) (* (- 15.0) ?x760))))
 (let ((?x2831 (* 16.0 ?x934)))
 (let (($x1415 (<= (+ (+ (+ (* 12.0 ?x760) (* 15.0 ?x760)) (* 6.0 |v0:11|)) ?x2831) 20.0)))
 (let ((?x2949 (- 11.0)))
 (let ((?x2206 (+ (+ (* (- 13.0) |v2:9|) (* 17.0 |v2:9|)) (* 9.0 |v2:9|))))
 (let (($x985 (and (and (<= (+ ?x2206 (* ?x1581 |v11:0|)) ?x2949) $x1415) (and (<= (+ ?x711 ?x2414) 6.0) (<= ?x1016 ?x1581)))))
 (let (($x1232 (or (or $x985 (and (or $x204 (<= ?x37 12.0)) (or (<= ?x1929 ?x2655) $x3068))) $x1695)))
 (let ((?x355 (- 13.0)))
 (let ((?x931 (* 19.0 |v3:8|)))
 (let ((?x2515 (+ (+ (+ (* 15.0 |v9:2|) (* (- 8.0) |v3:8|)) (* (- 16.0) |v1:10|)) ?x931)))
 (let ((?x1278 (- 18.0)))
 (let ((?x1306 (+ (+ (+ (* 14.0 |v8:3|) (* (- 3.0) ?x760)) (* 3.0 |v2:9|)) |v3:8|)))
 (let ((?x1162 (* 4.0 ?x760)))
 (let ((?x549 (+ (+ (+ (* ?x734 ?x934) (* (- 19.0) |v1:10|)) (* (- 16.0) |v11:0|)) ?x1162)))
 (let ((?x160 (+ (+ (+ (* 7.0 |v11:0|) (* 5.0 (rval2 |v5:6_st|))) ?x2389) (* 12.0 |v11:0|))))
 (let ((?x1711 (- 2.0)))
 (let ((?x1050 (+ (+ (+ (* ?x734 |v2:9|) (* 15.0 ?x934)) (* ?x991 |v3:8|)) (* (- 3.0) |v11:0|))))
 (let (($x1108 (and (or (<= ?x1050 ?x1711) (<= ?x160 ?x734)) (and (<= ?x549 16.0) (<= ?x1306 ?x1278)))))
 (let ((?x2105 (- 4.0)))
 (let ((?x376 (* ?x2105 |v0:11|)))
 (let (($x1173 (<= (+ (+ (+ |v10:1| (* 5.0 |v9:2|)) (* (- 7.0) |v1:10|)) ?x376) ?x2949)))
 (let ((?x894 (- 8.0)))
 (let ((?x2171 (* 16.0 |v10:1|)))
 (let ((?x589 (+ (+ (+ (* 4.0 |v11:0|) (* ?x1278 |v11:0|)) (* 19.0 (rval2 |v5:6_st|))) ?x2171)))
 (let ((?x574 (- 3.0)))
 (let ((?x1400 (* ?x1581 ?x760)))
 (let (($x877 (<= (+ (+ (+ (* 15.0 ?x468) (* ?x894 |v10:1|)) (* 7.0 |v11:0|)) ?x1400) ?x574)))
 (let ((?x1978 (- 19.0)))
 (let (($x1880 (<= (+ (+ (+ (* ?x1711 ?x468) (* (- 5.0) |v8:3|)) (* ?x2949 |v10:1|)) ?x376) ?x1978)))
 (let ((?x581 (- 16.0)))
 (let (($x531 (<= (+ (+ (+ ?x934 (* 8.0 |v1:10|)) (* (- 5.0) |v8:3|)) (* ?x1278 ?x934)) ?x581)))
 (let ((?x1293 (* 9.0 ?x468)))
 (let (($x1675 (<= (+ (+ (+ (* ?x355 |v2:9|) |v2:9|) (* ?x355 (rval2 |v5:6_st|))) ?x1293) 10.0)))
 (let (($x1696 (and (or (or (and $x1675 $x531) (or $x1880 $x877)) (or (<= ?x589 ?x894) $x1173)) (or $x1108 (<= ?x2515 ?x355)))))
 (let (($x3027 (not (= |v4:7_st| (RMk1 val!4247)))))
 (let (($x820 (not (= |v5:6_st| (RMk1 val!4246)))))
 (let (($x1286 (not (= |v6:5_st| (RMk1 val!4245)))))
 (let (($x2483 (not (= |v7:4_st| (RMk1 val!4244)))))
 (and $x2483 $x1286 $x820 $x3027 (and (or $x1696 $x1232) (<= ?x2540 7.0)))))))))))))))))))))))))))))))))))))))))))))))))))))))))))))))))))))
 )
 )
 )
 )
 )
 )
 )
 )
 )
 )
 )
 )
(check-sat)
